m = 2;
n = 7;
l = [15, 13, ];
s = [3, 2, 6, 8, 5, 4, 4, ];
x = [1, 2, 2, 4, 5, 5, 6, 3, ];
y = [3, 1, 5, 0, 2, 5, 4, 3, ];
% lower_bound = 15;
length = [4, 4, ];
n = 7;
s = [3, 2, 6, 8, 5, 4, 4]
x = [1, 2, 2, 4, 5, 5, 6, 3]
y = [3, 1, 5, 0, 2, 5, 4, 3]
X = [[1]; [2]; [2]; [4]; [5]; [5]; [6]; [3]; ]
Y = [[3]; [1]; [5]; [0]; [2]; [5]; [4]; [3]; ]
I = [[0]; [1]; [2]; [3]; [4]; [5]; [6]; [7]; ]

